p cnf 102 356
4 -2 0
4 3 0
2 -3 -4 0
-1 4 -5 0
1 -4 -5 0
-1 -4 5 0
1 4 5 0
-6 -5 0
-6 4 0
5 -4 6 0
7 3 -8 0
-7 -3 -8 0
7 -3 8 0
-7 3 8 0
9 -6 0
9 -8 0
6 8 -9 0
9 -10 -11 0
-9 10 -11 0
9 10 11 0
-9 -10 11 0
13 -3 0
13 12 0
3 -12 -13 0
-11 13 -14 0
11 -13 -14 0
-11 -13 14 0
11 13 14 0
-17 -15 0
-17 -16 0
15 16 17 0
18 -17 0
18 8 0
17 -8 -18 0
6 -18 -19 0
-6 18 -19 0
6 18 19 0
-6 -18 19 0
-21 18 0
-21 18 0
-18 21 0
22 20 0
22 -21 0
-20 21 -22 0
-10 -22 -23 0
10 22 -23 0
-10 22 23 0
10 -22 23 0
24 -19 0
24 23 0
19 -23 -24 0
25 15 -26 0
-25 -15 -26 0
25 -15 26 0
-25 15 26 0
28 2 0
28 27 0
-2 -27 -28 0
-29 28 0
-29 12 0
-28 -12 29 0
-30 -25 0
-30 29 0
25 -29 30 0
31 -30 0
31 -6 0
30 6 -31 0
26 31 -32 0
-26 -31 -32 0
26 -31 32 0
-26 31 32 0
-33 -32 0
-33 30 0
32 -30 33 0
34 33 0
34 7 0
-33 -7 -34 0
35 24 0
35 34 0
-24 -34 -35 0
12 5 -36 0
-12 -5 -36 0
12 -5 36 0
-12 5 36 0
-4 36 -37 0
4 -36 -37 0
-4 -36 37 0
4 36 37 0
37 -38 -39 0
-37 38 -39 0
37 38 39 0
-37 -38 39 0
-39 -1 -40 0
39 1 -40 0
-39 1 40 0
39 -1 40 0
-17 40 -41 0
17 -40 -41 0
-17 -40 41 0
17 40 41 0
-43 -38 0
-43 -42 0
38 42 43 0
44 -41 0
44 -43 0
41 43 -44 0
45 -35 0
45 44 0
35 -44 -45 0
46 14 0
46 -45 0
-14 45 -46 0
-47 7 0
-47 1 0
-7 -1 47 0
48 16 0
48 -47 0
-16 47 -48 0
-27 29 -49 0
27 -29 -49 0
-27 -29 49 0
27 29 49 0
50 -49 0
50 -10 0
49 10 -50 0
-51 -18 0
-51 50 0
18 -50 51 0
-52 -40 0
-52 -51 0
40 51 52 0
48 -52 -53 0
-48 52 -53 0
48 52 53 0
-48 -52 53 0
-54 -28 0
-54 -7 0
28 7 54 0
-55 38 0
-55 38 0
-38 55 0
56 -55 0
56 4 0
55 -4 -56 0
57 54 0
57 56 0
-54 -56 -57 0
-58 -53 0
-58 -57 0
53 57 58 0
59 29 0
59 16 0
-29 -16 -59 0
60 -10 0
60 18 0
10 -18 -60 0
61 -59 0
61 60 0
59 -60 -61 0
-61 -20 -62 0
61 20 -62 0
-61 20 62 0
61 -20 62 0
63 -62 0
63 -30 0
62 30 -63 0
-63 -2 -64 0
63 2 -64 0
-63 2 64 0
63 -2 64 0
-16 32 -65 0
16 -32 -65 0
-16 -32 65 0
16 32 65 0
66 -64 0
66 65 0
64 -65 -66 0
5 -27 -68 0
-5 27 -68 0
5 27 68 0
-5 -27 68 0
69 -20 0
69 68 0
20 -68 -69 0
-67 -69 -70 0
67 69 -70 0
-67 69 70 0
67 -69 70 0
71 -15 0
71 18 0
15 -18 -71 0
71 -36 -72 0
-71 36 -72 0
71 36 72 0
-71 -36 72 0
73 49 0
73 -72 0
-49 72 -73 0
70 73 -74 0
-70 -73 -74 0
70 -73 74 0
-70 73 74 0
75 -66 0
75 74 0
66 -74 -75 0
-58 -75 -76 0
58 75 -76 0
-58 75 76 0
58 -75 76 0
-77 -39 0
-77 37 0
39 -37 77 0
-78 -60 0
-78 -30 0
60 30 78 0
-79 -78 0
-79 -7 0
78 7 79 0
80 77 0
80 -79 0
-77 79 -80 0
-32 27 -81 0
32 -27 -81 0
-32 -27 81 0
32 27 81 0
-82 -55 0
-82 -81 0
55 81 82 0
-83 -31 0
-83 -82 0
31 82 83 0
-71 -83 -84 0
71 83 -84 0
-71 83 84 0
71 -83 84 0
85 -80 0
85 -84 0
80 84 -85 0
6 36 -86 0
-6 -36 -86 0
6 -36 86 0
-6 36 86 0
86 -26 -87 0
-86 26 -87 0
86 26 87 0
-86 -26 87 0
15 -7 -88 0
-15 7 -88 0
15 7 88 0
-15 -7 88 0
-16 -88 -89 0
16 88 -89 0
-16 88 89 0
16 -88 89 0
90 -36 0
90 61 0
36 -61 -90 0
-91 9 0
-91 90 0
-9 -90 91 0
-92 71 0
-92 -16 0
-71 16 92 0
-93 64 0
-93 28 0
-64 -28 93 0
94 93 0
94 -81 0
-93 81 -94 0
-95 18 0
-95 -94 0
-18 94 95 0
-96 92 0
-96 -95 0
-92 95 96 0
-97 91 0
-97 96 0
-91 -96 97 0
-89 -97 -98 0
89 97 -98 0
-89 97 98 0
89 -97 98 0
-87 98 -99 0
87 -98 -99 0
-87 -98 99 0
87 98 99 0
100 -85 0
100 99 0
85 -99 -100 0
101 76 0
101 100 0
-76 -100 -101 0
46 101 -102 0
-46 -101 -102 0
46 -101 102 0
-46 101 102 0
-33 2 0
-91 83 0
91 -97 0
-2 -93 22 -69 51 0
23 26 0
-50 -5 -87 41 -86 0
67 -102 0
87 8 97 0
-11 -33 13 -41 0
100 1 -69 54 0
38 -17 0
75 62 0
47 4 5 72 67 -25 0
-14 -53 -50 -12 0
-42 97 1 56 -102 -64 0
-95 -49 -86 -15 74 0
-69 -85 0
58 -47 0
-90 -68 -7 28 -101 79 0
11 28 -93 0
48 61 74 -16 87 -30 0
-38 42 -69 49 6 0
-6 59 -15 -56 -31 100 0
-74 84 -25 47 71 0
-88 22 -56 0
-57 51 0
-65 6 -80 -89 30 0
5 84 -90 0
85 43 57 89 0
-9 -83 33 82 0
102 -82 -55 27 -48 -54 0
72 89 0
65 -38 -57 -35 -52 -63 0
42 -28 -73 -53 -92 0
95 32 81 7 0
20 -59 -31 72 0
-8 -98 27 85 -32 0
-60 62 63 0
-53 -12 93 -43 -15 0
-49 -92 -4 -61 0
-71 -94 74 0
-85 70 -10 -74 -75 0
-70 92 23 46 -97 0
16 -20 96 5 15 -82 0
-45 -12 15 101 32 0
30 10 -46 0
76 -24 10 -11 0
53 -72 0
32 23 -39 0
39 -77 -50 0
-66 55 10 -85 11 0
52 -76 -35 -8 0
-29 31 -86 0
-34 78 -89 -2 14 -80 0
92 80 -43 72 -54 0
-43 99 87 52 -4 -59 0
54 72 -85 0
-6 -11 0
48 79 -58 65 55 0
102 0
